55
1 0 1
2 0 1
5 1 1
5 2 1
6 2 1
6 5 1
7 0 1
7 4 1
7 5 1
8 0 1
8 1 1
8 2 1
8 3 1
8 5 1
8 6 1
9 0 1
9 2 1
9 5 1
9 6 1
9 7 1
9 8 1
10 0 1
10 1 1
10 3 1
10 6 1
10 8 1
10 9 1
11 4 1
11 7 1
11 10 1
12 8 1
12 9 1
12 10 1
12 11 1
13 0 1
13 6 1
13 7 1
14 6 1
14 11 1
15 0 1
15 1 1
15 2 1
15 3 1
15 5 1
15 6 1
15 8 1
15 10 1
16 1 1
16 2 1
16 3 1
16 5 1
16 6 1
16 8 1
16 9 1
16 10 1
16 14 1
16 15 1
17 3 1
17 6 1
17 10 1
17 11 1
17 12 1
17 13 1
17 14 1
17 16 1
18 0 1
18 2 1
18 6 1
18 10 1
18 11 1
18 14 1
18 16 1
19 0 1
19 1 1
19 4 1
19 5 1
19 6 1
19 7 1
19 9 1
19 10 1
19 11 1
19 15 1
19 17 1
20 1 1
20 3 1
20 7 1
20 10 1
20 11 1
20 14 1
20 17 1
20 18 1
20 19 1
21 0 1
21 1 1
21 3 1
21 4 1
21 5 1
21 6 1
21 9 1
21 10 1
21 11 1
21 12 1
21 13 1
21 14 1
21 15 1
21 20 1
22 1 1
22 3 1
22 8 1
22 11 1
22 13 1
22 15 1
22 17 1
22 18 1
22 19 1
22 21 1
23 1 1
23 4 1
23 6 1
23 11 1
23 14 1
23 15 1
23 16 1
23 17 1
23 19 1
23 22 1
24 0 1
24 1 1
24 2 1
24 3 1
24 7 1
24 8 1
24 9 1
24 10 1
24 13 1
24 14 1
24 15 1
24 16 1
24 19 1
24 22 1
24 23 1
25 2 1
25 5 1
25 11 1
25 12 1
25 14 1
25 15 1
25 19 1
25 23 1
25 24 1
26 1 1
26 3 1
26 5 1
26 7 1
26 9 1
26 12 1
26 14 1
26 15 1
26 18 1
26 19 1
27 1 1
27 6 1
27 7 1
27 8 1
27 19 1
27 20 1
27 22 1
27 24 1
28 2 1
28 6 1
28 7 1
28 8 1
28 10 1
28 13 1
28 14 1
28 17 1
28 18 1
28 19 1
28 21 1
28 22 1
28 23 1
28 24 1
28 27 1
29 0 1
29 2 1
29 3 1
29 5 1
29 7 1
29 8 1
29 12 1
29 13 1
29 15 1
29 17 1
29 19 1
29 21 1
29 22 1
29 24 1
29 25 1
29 27 1
29 28 1
30 0 1
30 1 1
30 2 1
30 4 1
30 5 1
30 6 1
30 9 1
30 14 1
30 15 1
30 16 1
30 21 1
30 26 1
31 2 1
31 3 1
31 9 1
31 12 1
31 14 1
31 16 1
31 21 1
31 22 1
31 28 1
31 29 1
31 30 1
32 0 1
32 1 1
32 5 1
32 10 1
32 11 1
32 12 1
32 14 1
32 15 1
32 17 1
32 18 1
32 19 1
32 20 1
32 23 1
32 24 1
32 25 1
32 26 1
32 28 1
32 29 1
33 0 1
33 3 1
33 5 1
33 6 1
33 7 1
33 8 1
33 9 1
33 12 1
33 13 1
33 14 1
33 15 1
33 16 1
33 18 1
33 20 1
33 24 1
33 25 1
33 26 1
33 28 1
33 31 1
33 32 1
34 0 1
34 4 1
34 5 1
34 6 1
34 8 1
34 10 1
34 11 1
34 16 1
34 19 1
34 21 1
34 25 1
34 29 1
34 30 1
35 2 1
35 3 1
35 10 1
35 11 1
35 13 1
35 14 1
35 15 1
35 17 1
35 24 1
35 28 1
35 29 1
35 32 1
35 33 1
36 0 1
36 2 1
36 3 1
36 4 1
36 6 1
36 8 1
36 9 1
36 10 1
36 11 1
36 13 1
36 14 1
36 15 1
36 17 1
36 20 1
36 21 1
36 24 1
36 26 1
36 27 1
36 29 1
36 31 1
36 35 1
37 4 1
37 6 1
37 7 1
37 9 1
37 10 1
37 11 1
37 13 1
37 14 1
37 15 1
37 17 1
37 18 1
37 19 1
37 22 1
37 24 1
37 30 1
37 33 1
37 36 1
38 0 1
38 2 1
38 3 1
38 5 1
38 6 1
38 8 1
38 9 1
38 11 1
38 12 1
38 13 1
38 14 1
38 18 1
38 19 1
38 20 1
38 21 1
38 23 1
38 28 1
38 29 1
38 30 1
38 32 1
38 33 1
38 35 1
38 36 1
38 37 1
39 0 1
39 3 1
39 8 1
39 10 1
39 13 1
39 14 1
39 15 1
39 16 1
39 17 1
39 18 1
39 19 1
39 20 1
39 21 1
39 22 1
39 23 1
39 24 1
39 25 1
39 26 1
39 28 1
39 29 1
39 33 1
39 35 1
40 1 1
40 3 1
40 4 1
40 5 1
40 6 1
40 8 1
40 10 1
40 12 1
40 14 1
40 18 1
40 21 1
40 23 1
40 28 1
40 33 1
40 34 1
40 35 1
40 36 1
40 38 1
40 39 1
41 1 1
41 3 1
41 4 1
41 5 1
41 10 1
41 12 1
41 14 1
41 16 1
41 17 1
41 18 1
41 20 1
41 21 1
41 22 1
41 23 1
41 24 1
41 26 1
41 29 1
41 31 1
41 35 1
41 37 1
41 38 1
41 40 1
42 0 1
42 1 1
42 3 1
42 4 1
42 6 1
42 7 1
42 8 1
42 9 1
42 11 1
42 13 1
42 14 1
42 18 1
42 22 1
42 24 1
42 25 1
42 26 1
42 27 1
42 28 1
42 29 1
42 30 1
42 32 1
42 33 1
42 35 1
42 37 1
42 38 1
42 39 1
43 1 1
43 4 1
43 6 1
43 8 1
43 9 1
43 10 1
43 11 1
43 12 1
43 16 1
43 17 1
43 18 1
43 19 1
43 22 1
43 23 1
43 25 1
43 26 1
43 27 1
43 28 1
43 29 1
43 30 1
43 31 1
43 32 1
43 33 1
43 35 1
43 36 1
43 38 1
43 39 1
43 40 1
43 41 1
43 42 1
44 0 1
44 1 1
44 4 1
44 5 1
44 6 1
44 7 1
44 9 1
44 10 1
44 12 1
44 13 1
44 14 1
44 15 1
44 16 1
44 17 1
44 20 1
44 21 1
44 22 1
44 24 1
44 25 1
44 29 1
44 30 1
44 32 1
44 34 1
44 35 1
44 36 1
44 40 1
44 41 1
44 43 1
45 6 1
45 8 1
45 12 1
45 13 1
45 17 1
45 21 1
45 22 1
45 23 1
45 24 1
45 25 1
45 32 1
45 34 1
45 35 1
45 41 1
45 42 1
46 0 1
46 3 1
46 4 1
46 8 1
46 9 1
46 10 1
46 13 1
46 16 1
46 17 1
46 18 1
46 19 1
46 20 1
46 21 1
46 22 1
46 24 1
46 28 1
46 33 1
46 35 1
46 39 1
46 44 1
46 45 1
47 7 1
47 9 1
47 11 1
47 12 1
47 13 1
47 14 1
47 16 1
47 17 1
47 18 1
47 21 1
47 23 1
47 24 1
47 34 1
47 35 1
47 38 1
47 40 1
47 43 1
47 45 1
48 1 1
48 4 1
48 6 1
48 13 1
48 16 1
48 18 1
48 19 1
48 21 1
48 22 1
48 24 1
48 27 1
48 28 1
48 32 1
48 34 1
48 36 1
48 39 1
48 40 1
48 43 1
48 44 1
48 46 1
48 47 1
49 0 1
49 3 1
49 7 1
49 8 1
49 9 1
49 10 1
49 11 1
49 12 1
49 14 1
49 15 1
49 18 1
49 19 1
49 20 1
49 22 1
49 23 1
49 24 1
49 25 1
49 26 1
49 27 1
49 28 1
49 29 1
49 30 1
49 31 1
49 34 1
49 36 1
49 37 1
49 38 1
49 40 1
49 42 1
49 44 1
49 46 1
49 48 1
50 3 1
50 5 1
50 6 1
50 7 1
50 8 1
50 9 1
50 10 1
50 14 1
50 15 1
50 16 1
50 17 1
50 24 1
50 25 1
50 28 1
50 29 1
50 31 1
50 32 1
50 33 1
50 34 1
50 35 1
50 37 1
50 39 1
50 40 1
50 42 1
50 43 1
50 46 1
50 47 1
50 48 1
50 49 1
51 1 1
51 2 1
51 3 1
51 6 1
51 8 1
51 9 1
51 10 1
51 12 1
51 13 1
51 14 1
51 16 1
51 17 1
51 18 1
51 19 1
51 20 1
51 21 1
51 22 1
51 23 1
51 24 1
51 26 1
51 28 1
51 34 1
51 35 1
51 36 1
51 37 1
51 40 1
51 41 1
51 42 1
51 44 1
51 47 1
51 50 1
52 0 1
52 2 1
52 3 1
52 5 1
52 7 1
52 10 1
52 11 1
52 13 1
52 16 1
52 18 1
52 20 1
52 22 1
52 23 1
52 24 1
52 28 1
52 29 1
52 31 1
52 32 1
52 33 1
52 34 1
52 38 1
52 39 1
52 41 1
52 46 1
52 47 1
52 48 1
52 49 1
53 7 1
53 8 1
53 9 1
53 10 1
53 12 1
53 16 1
53 19 1
53 20 1
53 22 1
53 27 1
53 29 1
53 30 1
53 33 1
53 35 1
53 37 1
53 38 1
53 43 1
53 48 1
53 50 1
53 51 1
54 1 1
54 4 1
54 10 1
54 11 1
54 13 1
54 15 1
54 16 1
54 17 1
54 19 1
54 21 1
54 22 1
54 23 1
54 24 1
54 25 1
54 26 1
54 27 1
54 28 1
54 32 1
54 33 1
54 34 1
54 35 1
54 38 1
54 39 1
54 40 1
54 41 1
54 43 1
54 45 1
54 46 1
54 49 1
54 51 1
54 52 1
